10000   31   94   88   58   17   80   68   41   15   
50   10000   40   69   46   10   20   22   82   24   
74   22   10000   9   35   21   59   35   34   40   
70   36   1   10000   66   40   3   59   48   41   
36   76   12   41   10000   40   33   2   76   88   
72   98   18   73   78   10000   15   35   40   38   
11   38   2   37   78   78   10000   19   53   17   
74   92   39   65   13   80   2   10000   8   33   
1   24   9   71   54   14   12   6   10000   3   
45   9   74   36   47   82   69   41   13   10000   
